EVRP-TW-SPD dataset generation/evrptwspd_instances/small_instances/Cplex10er/rc108C10.txt
StringID	Type	x	y	Delivery	Pickup	ReadyTime	DueDate	ServiceTime
D0	d	40.0	50.0	0.0	0.0	0.0	240.0	0.0
S0	f	40.0	50.0	0.0	0.0	0.0	240.0	0.0
S3	f	57.0	82.0	0.0	0.0	0.0	240.0	0.0
S5	f	31.0	84.0	0.0	0.0	0.0	240.0	0.0
S19	f	77.0	30.0	0.0	0.0	0.0	240.0	0.0
C83	c	37.0	31.0	11.72972972972973	2.27027027027027	74.0	192.0	10.0
C45	c	20.0	82.0	2.4390243902439024	7.560975609756097	38.0	192.0	10.0
C35	c	67.0	85.0	15.76470588235294	4.23529411764706	61.0	185.0	10.0
C28	c	92.0	30.0	3.2608695652173916	6.739130434782608	74.0	174.0	10.0
C79	c	6.0	68.0	2.647058823529412	27.352941176470587	39.0	151.0	10.0
C65	c	35.0	40.0	14.0	2.0	12.0	109.0	10.0
C93	c	61.0	52.0	2.5573770491803276	0.4426229508196724	22.0	101.0	10.0
C85	c	63.0	23.0	0.7301587301587301	1.2698412698412698	36.0	194.0	10.0
C80	c	47.0	47.0	13.0	0.0	8.0	150.0	10.0
C86	c	21.0	24.0	24.5	3.5	125.0	197.0	10.0

Q Vehicle fuel tank capacity /77.75/
C Vehicle load capacity /200.0/
r fuel consumption rate /1.0/
g inverse refueling rate /0.39/
v average Velocity /1.0/
